examples/factoring2017-0001.dimacs
p cnf 13 416 
c Factors encoded in variables 1-6 and 7-12
c Target number: 2337
c Factors: 57 x 41
-5 4 -3 11 -10 -14 -14 -14 0
12 0
-5 4 -2 11 -10 -14 14 0
5 2 -11 14 -14 14 14 0
-4 -3 -10 -9 14 14 14 14 0
5 -4 2 -11 10 -14 14 14 0
5 3 -10 -9 8 -14 14 14 0
5 -3 -2 -11 -10 9 0
5 4 10 14 -14 -14 0
-4 -10 -9 -8 -14 0
5 -4 11 10 -8 14 -14 -14 0
-5 -4 3 11 10 -8 14 -14 0
5 4 11 10 -14 0
5 -2 11 10 -14 -14 0
-3 -2 11 -10 9 -8 14 -14 14 0
-4 -10 9 8 -14 0
5 -2 11 -10 -14 14 0
-5 2 -11 10 -9 14 -14 14 0
-5 -2 -11 10 -14 -14 0
-4 3 2 10 14 0
5 4 3 8 -14 14 0
-3 -2 11 -9 -8 14 -14 -14 -14 0
4 3 8 14 -14 0
-5 -4 11 -10 14 -14 0
-5 4 -2 11 10 -14 14 14 0
2 -10 -9 -8 -14 14 0
-3 10 -8 14 -14 -14 14 -14 0
-4 2 -11 10 -9 -8 14 14 14 0
4 2 10 -9 14 14 14 0
3 2 -9 -8 14 -14 0
5 -3 11 14 -14 14 14 14 0
5 3 11 9 -14 -14 -14 -14 0
-5 -4 -2 11 -10 9 -8 -14 -14 0
2 9 -8 -14 14 14 0
3 -11 14 -14 14 -14 -14 0
-5 -2 -11 -10 -9 14 14 0
5 11 14 -14 0
3 -2 -10 -9 8 14 14 0
1 0
-5 -4 3 11 10 -8 -14 -14 0
5 -4 -3 11 10 -9 14 14 14 0
5 -4 -11 10 -14 -14 0
-4 -2 -10 9 -8 14 14 0
-4 2 -11 -10 9 -14 0
4 3 -2 10 -8 14 14 0
-5 2 -11 10 -14 14 0
5 -3 2 10 -9 -8 -14 14 0
-5 -4 -11 10 -9 14 -14 -14 0
5 -4 -3 -2 11 -9 -14 14 0
2 -10 14 -14 -14 14 -14 0
-4 3 11 -9 -8 -14 14 14 -14 0
5 4 11 -14 -14 0
4 3 10 9 -14 0
-2 10 8 14 -14 14 0
-4 11 -9 -14 14 14 -14 14 0
-11 -8 -14 -14 -14 0
11 -10 9 -8 -14 14 14 0
4 2 11 14 -14 0
-11 -9 -8 14 14 0
4 -2 9 -14 14 -14 -14 14 0
-5 2 -11 -10 -14 -14 0
-5 -4 -11 9 -8 14 -14 14 0
5 -4 11 8 -14 -14 0
5 -4 -11 -10 8 -14 -14 0
5 -4 3 -2 -11 -10 -8 -14 -14 0
5 -4 11 -8 -14 14 0
-4 14 14 14 14 14 -14 0
5 -4 10 8 14 14 14 -14 0
5 11 10 0
2 11 -10 -9 -8 14 -14 14 14 0
-2 -10 -9 14 14 -14 -14 0
-5 3 2 10 14 -14 -14 0
4 3 -2 10 14 14 14 0
5 4 -3 11 -8 -14 -14 -14 0
5 4 3 9 8 14 -14 0
4 3 10 8 -14 -14 14 0
-5 4 3 10 8 -14 -14 -14 -14 0
5 -4 3 11 -8 14 -14 14 0
5 4 3 2 -14 0
-3 2 11 10 14 -14 14 -14 14 0
-4 -3 2 -10 14 14 -14 14 0
-5 -2 9 -14 14 -14 14 0
4 -3 11 14 14 -14 14 -14 0
2 10 -8 14 14 -14 14 14 14 0
4 10 -14 14 0
-3 -2 11 -10 -14 14 -14 14 0
4 11 -14 14 14 0
3 -2 10 -9 14 14 -14 -14 0
-4 -2 10 9 -14 14 14 0
5 10 8 -14 14 14 -14 0
-14 -14 0
-5 -4 2 11 -10 -14 14 14 0
-5 3 11 -10 9 14 -14 14 0
-5 -4 -9 8 14 14 -14 -14 14 0
4 -10 -9 -8 14 0
-2 8 14 0
-5 -9 -8 -14 14 14 14 -14 0
4 9 -14 -14 -14 14 -14 0
4 -3 -2 -10 14 0
-5 4 11 -10 14 14 0
-3 2 11 9 -14 14 -14 14 -14 0
3 -10 14 14 -14 -14 14 0
-4 3 2 11 -14 -14 0
5 4 -11 10 14 -14 0
-5 11 10 -9 -14 14 -14 14 0
-10 -14 -14 -14 0
-5 -3 10 8 14 14 14 0
-5 -4 -3 -2 -9 -14 14 14 0
-11 -10 9 8 -14 -14 -14 0
-4 -10 9 -14 0
5 11 14 -14 14 0
-4 3 -10 8 14 -14 -14 0
-4 -3 -2 -11 -9 14 14 14 0
-5 4 3 11 14 -14 -14 0
-5 -2 -11 -10 14 14 -14 -14 14 14 0
-5 -2 -11 -10 -8 -14 -14 -14 0
5 -11 -10 9 14 -14 14 -14 0
-4 11 -9 14 14 14 14 14 0
-5 2 11 10 -8 14 -14 -14 -14 0
5 -14 0
4 3 -2 11 -10 9 -14 14 0
-4 2 -9 14 14 -14 0
-5 -3 -14 14 0
-5 -4 -3 8 14 -14 0
5 11 9 0
5 -4 10 -9 8 14 14 -14 0
-5 4 -11 10 -8 14 14 14 0
-5 -2 -11 -10 -14 14 0
-5 2 11 10 -9 -14 -14 14 0
5 4 -3 -2 -11 -10 -14 -14 0
-5 11 -9 -8 -14 14 14 0
4 3 10 -8 -14 -14 0
-11 -10 -8 14 -14 0
-4 -2 -11 10 -14 -14 14 0
4 -3 -11 9 -14 -14 14 14 14 0
3 10 -9 -8 -14 -14 14 0
4 -9 14 14 14 0
4 -8 14 14 14 14 14 0
3 -2 -10 -9 -8 14 -14 14 0
-5 -4 3 2 -11 -10 14 14 -14 0
-4 -10 14 14 -14 14 -14 0
-5 -2 -9 14 14 -14 14 -14 0
-3 -11 14 -14 -14 0
3 -11 -14 14 -14 14 -14 0
4 2 10 9 -8 -14 14 0
11 -10 -8 -14 -14 -14 -14 0
5 4 11 10 -14 -14 0
11 10 9 8 -14 0
5 -4 3 -11 10 -8 -14 -14 0
-10 -14 -14 -14 14 0
-5 3 2 10 -14 14 -14 0
-5 -4 3 -10 8 14 14 -14 14 0
4 -2 -11 9 -8 14 14 14 0
-5 3 2 10 9 8 -14 0
5 -4 11 -10 -9 8 -14 -14 14 0
5 3 2 10 8 -14 14 0
-5 -4 10 -8 14 0
-4 10 14 14 -14 -14 -14 0
-5 4 -11 10 -14 -14 0
4 -11 10 -14 14 0
5 -3 11 10 -8 14 14 14 0
-11 -9 -14 14 14 14 14 0
5 4 -11 -10 14 14 0
-5 -3 11 9 8 14 14 -14 14 0
-5 -3 -2 -11 14 -14 0
4 -10 9 8 14 14 0
-5 3 2 -11 9 8 -14 -14 -14 0
5 -3 10 -9 14 -14 -14 0
2 8 -14 0
-5 4 -11 -10 -14 14 0
4 2 -11 10 -14 14 -14 14 0
11 9 -8 14 -14 14 -14 0
4 -3 2 10 9 14 -14 0
-4 -10 9 14 14 -14 0
5 4 -2 -10 -9 8 -14 14 -14 0
5 4 11 -10 -14 14 0
5 4 3 2 9 -14 14 0
5 3 11 0
-4 -3 -2 11 9 -8 14 -14 14 0
-3 2 -11 9 14 14 14 -14 -14 0
3 -10 8 -14 14 14 14 0
-4 -3 2 11 -8 14 14 14 14 0
5 3 -11 10 8 14 -14 -14 14 0
4 3 11 14 0
4 -3 11 -10 -9 -14 -14 0
5 4 2 -10 9 14 14 -14 -14 0
2 14 14 14 -14 -14 -14 0
-5 -10 -9 -8 14 0
-4 3 -11 -10 -14 0
5 -4 -3 11 -10 -9 8 14 -14 0
4 -3 -10 8 14 -14 14 0
-5 -4 3 2 -14 0
-5 -4 -3 -10 -9 8 -14 14 0
5 2 -11 -10 14 -14 0
6 0
5 11 14 14 0
5 -3 -11 10 -8 -14 14 14 0
5 -2 10 -9 -8 -14 14 -14 14 0
5 -2 -11 10 9 14 -14 14 0
-2 -14 14 -14 14 0
-5 4 2 -10 9 14 0
14 -14 14 14 0
-3 11 10 9 14 14 14 0
5 -4 2 11 10 -9 14 -14 0
-4 3 10 -9 -14 14 0
3 11 10 9 8 -14 14 0
4 10 9 8 -14 0
-5 3 11 -9 -8 14 -14 14 0
-3 2 -11 -10 -9 -14 0
5 3 -2 11 10 14 14 -14 0
-5 4 11 10 14 -14 0
-3 -9 -14 -14 -14 -14 14 0
9 14 -14 14 -14 0
4 -10 9 8 14 0
5 11 -14 14 14 14 0
-5 11 9 -8 14 14 -14 0
5 -4 -11 -8 14 14 0
-5 3 -2 10 -9 -8 0
3 -2 10 -14 -14 -14 0
4 -3 10 14 14 0
5 4 14 -14 0
-4 -3 -2 9 -8 -14 14 0
3 2 11 -10 -14 -14 14 -14 0
-5 4 11 -10 -14 -14 0
5 -11 9 8 -14 -14 14 0
-4 8 14 14 -14 -14 0
-5 -3 -2 -11 -10 9 14 -14 14 0
4 -3 10 9 8 14 -14 14 14 0
-5 4 -2 11 -10 -8 -14 14 14 0
-4 11 -10 -14 14 0
-5 -4 -11 -10 -14 -14 0
3 -2 9 -8 -14 14 14 14 0
-5 2 -11 8 -14 -14 14 -14 0
4 10 -14 -14 14 0
4 10 9 8 -14 -14 0
2 -10 9 -8 -14 14 -14 14 0
4 3 -10 -8 -14 14 14 0
-4 -3 -10 -8 14 -14 -14 0
4 11 9 -14 -14 -14 -14 0
5 3 10 9 0
-5 -11 -10 -9 14 -14 14 -14 0
-2 -11 9 14 -14 -14 0
5 11 10 9 -14 0
4 3 2 10 14 -14 -14 -14 0
4 -3 -2 10 -14 0
-2 -8 -14 0
5 3 10 14 -14 -14 0
-5 -4 -11 14 14 14 0
-4 -3 -2 10 14 0
9 8 14 14 -14 -14 -14 -14 0
5 -4 -11 8 14 -14 0
-4 2 10 9 -14 -14 -14 0
5 2 11 10 -14 14 0
4 -10 8 -14 14 -14 14 0
-4 3 10 14 14 -14 0
5 -4 3 -9 8 -14 -14 0
-3 2 10 9 -8 -14 -14 14 0
5 -3 2 -11 -8 -14 14 14 0
-5 -3 2 -10 9 8 -14 0
5 -3 -8 14 14 14 -14 0
-4 3 -2 -11 -9 8 14 14 14 0
-3 -2 -11 -10 9 14 0
-4 2 -11 10 9 8 14 14 0
-4 -2 -10 -8 -14 -14 -14 0
-3 9 14 0
-5 3 10 9 14 14 -14 0
-5 2 11 10 14 14 0
-5 -9 -8 -14 14 -14 -14 -14 0
4 -3 -9 8 -14 -14 -14 -14 14 0
-5 3 -11 9 -14 14 0
4 3 8 -14 14 0
4 10 9 -14 0
-5 4 11 -14 14 0
5 3 -2 9 -8 -14 14 -14 0
-2 -11 -10 -9 -8 -14 -14 0
5 3 -2 -10 -9 -8 14 0
5 -4 -3 2 11 -10 -9 14 -14 0
-11 9 14 -14 14 14 14 14 0
-4 3 2 -11 -8 -14 14 0
-5 4 3 -11 -10 9 8 -14 0
-5 11 -10 8 -14 -14 14 -14 0
-5 2 -11 14 -14 14 -14 -14 0
-5 -3 -2 11 8 -14 14 14 0
-5 4 -2 -11 -10 14 -14 -14 0
5 11 10 -14 -14 0
-5 4 -3 2 -11 -9 -14 0
5 4 2 -11 10 -9 14 -14 0
4 -2 10 -8 -14 -14 0
4 2 -8 14 -14 14 0
4 -3 -2 9 -14 -14 14 0
4 -2 -11 -8 -14 0
4 3 10 -9 8 14 14 0
5 2 14 -14 -14 14 0
-4 -3 -11 10 -9 8 -14 0
-5 4 11 -8 14 -14 0
-5 11 -10 -9 8 14 -14 -14 14 0
5 -3 2 9 -14 -14 -14 14 0
-5 4 -11 -14 -14 0
2 11 10 9 14 14 -14 14 0
5 -2 -11 -10 14 14 0
5 2 -11 10 -9 -14 -14 14 0
5 2 11 10 -9 14 -14 14 0
-5 -4 3 2 -11 9 14 -14 14 0
-4 -3 -10 -9 8 14 14 -14 -14 14 0
4 14 14 -14 -14 14 14 0
-11 9 -8 -14 14 14 14 0
-5 -3 2 10 -9 -14 -14 0
5 11 -10 -8 -14 -14 -14 0
-14 14 14 0
5 3 2 10 14 14 -14 0
5 -3 2 11 14 14 0
5 -3 -11 10 9 14 -14 0
11 -14 0
3 2 -11 10 14 -14 14 0
5 -11 -8 -14 -14 14 14 -14 0
3 10 9 14 -14 -14 -14 -14 0
5 3 -2 -11 10 -9 -14 14 0
7 0
5 4 2 11 -8 -14 -14 -14 -14 0
4 2 -11 10 -9 14 14 -14 0
4 3 2 -10 14 0
-5 -2 11 10 -9 8 14 -14 -14 14 0
-5 3 -11 9 14 -14 14 -14 0
-3 2 11 10 14 14 -14 14 0
5 -4 11 -10 9 -8 -14 -14 -14 0
3 9 -14 0
-4 -3 -2 8 -14 14 0
-3 -9 -14 0
-11 -10 -9 14 -14 -14 0
5 4 3 9 14 -14 -14 0
4 -3 -10 -14 -14 -14 0
-4 3 2 -10 -14 0
11 10 9 14 0
4 -3 -2 10 -9 -8 14 14 0
-5 9 -14 14 -14 14 -14 0
-2 -10 8 -14 -14 14 0
5 -2 -11 10 14 -14 0
-5 -4 10 9 14 0
5 -3 -2 10 14 -14 -14 14 0
5 -4 11 -10 8 14 14 14 0
4 -3 -10 8 -14 14 0
-5 -4 -3 -2 14 14 14 0
-5 4 2 -11 -10 9 14 -14 -14 0
-2 -10 -8 14 14 -14 14 -14 0
-4 -2 -11 10 14 14 14 14 0
-5 -4 -3 2 -9 -14 0
-5 -2 11 -10 14 14 0
-5 -9 -14 14 -14 14 -14 14 0
5 -4 -8 -14 14 14 14 0
-5 3 -11 10 8 14 0
5 -2 -9 -14 -14 -14 14 14 0
-4 -3 -2 -10 -14 0
5 -4 -3 -11 8 -14 -14 0
5 4 11 -10 8 14 -14 -14 0
-4 -3 11 -10 -14 -14 0
3 11 10 8 14 14 -14 14 0
-10 -14 -14 -14 -14 0
-5 -4 3 -11 -9 -8 14 -14 14 0
5 -3 2 9 14 0
5 4 -3 -10 9 -14 14 0
-11 -10 -14 14 14 -14 0
2 14 14 14 -14 0
4 3 -11 -10 14 0
4 3 -10 8 -14 -14 -14 0
-5 -4 11 8 14 -14 0
-5 4 -11 10 8 14 -14 -14 14 0
-5 4 3 2 -10 9 8 14 0
4 -3 -2 10 14 -14 0
-5 -4 3 11 8 -14 14 14 14 0
5 -4 3 -2 -14 -14 0
-4 -10 -9 8 14 14 14 0
-5 4 11 10 -9 14 -14 0
-11 10 14 14 14 14 14 -14 0
11 10 14 -14 0
5 -4 -11 -10 8 -14 14 14 0
-4 10 9 8 14 0
-4 3 -10 9 -14 -14 -14 0
5 4 11 14 0
-4 -10 14 14 -14 14 0
3 11 -10 -8 14 14 14 0
-4 10 -9 -8 14 0
-3 2 -11 10 -9 8 14 14 14 -14 0
-5 -4 -11 14 14 0
5 -4 -3 11 10 -8 14 14 0
2 -8 14 0
-5 -4 11 10 -9 -14 -14 -14 0
-5 -11 -10 -9 14 14 14 0
5 11 -10 -9 -8 -14 -14 14 0
5 4 3 10 0
-4 -3 -2 9 8 14 -14 14 0
-5 -4 -11 -10 9 14 -14 0
5 -4 -9 -8 14 -14 -14 0
-4 -2 10 -9 -14 -14 -14 0
-5 -11 10 -14 -14 0
-4 -2 -11 -9 8 14 14 0
-5 -4 -9 14 14 14 14 0
4 3 10 -9 8 14 -14 0
3 2 11 -10 -9 -14 -14 -14 0
-4 -10 -9 14 14 14 0
-11 -9 -8 14 -14 14 -14 0
4 2 9 -14 -14 -14 -14 14 0
-3 -2 -11 10 14 -14 14 14 14 0
5 -4 -3 2 11 -10 -14 14 0
-5 -4 -11 -10 9 8 14 14 0
-11 -10 -14 14 -14 0
4 -3 10 14 -14 14 14 0
-5 4 3 -11 -9 -8 14 0
-5 -11 10 9 14 14 14 -14 0
-5 4 3 -10 9 8 14 -14 14 0
3 -9 14 0
4 -3 -2 10 -9 -8 -14 14 0
10 -8 -14 -14 -14 -14 -14 0
4 2 -10 -9 8 -14 14 0
-5 -4 -11 10 -14 14 0
5 -10 -9 14 -14 0
5 2 -11 10 14 14 0
